NAME 
ROWS
 N  OBJ
 L  R0      
 L  R1      
 L  R2      
 E  R3      
COLUMNS
    MARKER    'MARKER'                 'INTORG'
    I0(4)     OBJ       -737
    I0(4)     R0        -823
    I0(4)     R1        -959
    I0(4)     R2        -357
    I0(4)     R3        835
    I1(4)     OBJ       -659
    I1(4)     R0        -38
    I1(4)     R1        -830
    I1(4)     R2        -988
    I1(4)     R3        704
    I2(4)     OBJ       -218
    I2(4)     R0        -83
    I2(4)     R1        -699
    I2(4)     R2        -814
    I2(4)     R3        928
    I3(4)     OBJ       -790
    I3(4)     R0        -125
    I3(4)     R1        -337
    I3(4)     R2        -575
    I3(4)     R3        918
    I4(4)     OBJ       -542
    I4(4)     R0        -706
    I4(4)     R1        -604
    I4(4)     R2        -777
    I4(4)     R3        829
    I5(4)     OBJ       -850
    I5(4)     R0        -826
    I5(4)     R1        -574
    I5(4)     R2        -355
    I5(4)     R3        633
    I6(4)     OBJ       -968
    I6(4)     R0        -304
    I6(4)     R1        -303
    I6(4)     R2        -425
    I6(4)     R3        744
    I7(4)     OBJ       -527
    I7(4)     R0        -739
    I7(4)     R1        -25
    I7(4)     R2        -744
    I7(4)     R3        132
    I8(4)     OBJ       -466
    I8(4)     R0        -845
    I8(4)     R1        -251
    I8(4)     R2        -882
    I8(4)     R3        371
    I9(4)     OBJ       -91
    I9(4)     R0        -519
    I9(4)     R1        -155
    I9(4)     R2        -890
    I9(4)     R3        588
    I10(1)    R3        1
    MARKER    'MARKER'                 'INTEND'
RHS
    RHS1      R0        -2817
    RHS1      R1        -2198
    RHS1      R2        -2456
    RHS1      R3        3341
BOUNDS
 UP BND1      I0(4)     1
 UP BND1      I1(4)     1
 UP BND1      I2(4)     1
 UP BND1      I3(4)     1
 UP BND1      I4(4)     1
 UP BND1      I5(4)     1
 UP BND1      I6(4)     1
 UP BND1      I7(4)     1
 UP BND1      I8(4)     1
 UP BND1      I9(4)     1
 LI BND1      I10(1)    0
ENDATA
